Route #1: 62 52 25 5 59 51 15 24 
Route #2: 16 38 40 34 8 27 21 17 
Route #3: 9 37 19 31 41 54 46 30 
Route #4: 1 23 20 2 63 39 57 
Route #5: 10 29 11 28 56 13 
Route #6: 7 4 60 14 35 48 36 22 55 33 
Route #7: 32 3 12 47 61 50 18 
Route #8: 44 58 6 53 45 42 
Route #9: 26 43 49 
cost 1115.92